(set-info :smt-lib-version 2.6)
(set-logic QF_SLIA)
(set-info :source |
Generated by: Denghang Hu
Generated on: 2023-04-14
Application: Evaluate string solvers
Target solver: Ostrich, Z3str3, CVC5
Description: The instance consists of:
(1) a regular membership predicate from the real world
(2) a regular membership predicate to sanitize danger letters in javascript such as <,>,&,",'
(3) a lower bound for string length
|)
(set-info :license "https://creativecommons.org/licenses/by/4.0/")
(set-info :category "industrial")
(set-info :status unknown)
        ;test regex CASE WHEN name ~ '\d\s\d{8}' THEN 'Long Name' END
(declare-const X String)
(assert (str.in_re X (re.++ (str.to_re "C") (re.++ (str.to_re "A") (re.++ (str.to_re "S") (re.++ (str.to_re "E") (re.++ (str.to_re " ") (re.++ (str.to_re "W") (re.++ (str.to_re "H") (re.++ (str.to_re "E") (re.++ (str.to_re "N") (re.++ (str.to_re " ") (re.++ (str.to_re "n") (re.++ (str.to_re "a") (re.++ (str.to_re "m") (re.++ (str.to_re "e") (re.++ (str.to_re " ") (re.++ (str.to_re "~") (re.++ (str.to_re " ") (re.++ (str.to_re "\u{27}") (re.++ (re.range "0" "9") (re.++ (re.union (str.to_re " ") (re.union (str.to_re "\u{0b}") (re.union (str.to_re "\u{0a}") (re.union (str.to_re "\u{0d}") (re.union (str.to_re "\u{09}") (str.to_re "\u{0c}")))))) (re.++ ((_ re.loop 8 8) (re.range "0" "9")) (re.++ (str.to_re "\u{27}") (re.++ (str.to_re " ") (re.++ (str.to_re "T") (re.++ (str.to_re "H") (re.++ (str.to_re "E") (re.++ (str.to_re "N") (re.++ (str.to_re " ") (re.++ (str.to_re "\u{27}") (re.++ (str.to_re "L") (re.++ (str.to_re "o") (re.++ (str.to_re "n") (re.++ (str.to_re "g") (re.++ (str.to_re " ") (re.++ (str.to_re "N") (re.++ (str.to_re "a") (re.++ (str.to_re "m") (re.++ (str.to_re "e") (re.++ (str.to_re "\u{27}") (re.++ (str.to_re " ") (re.++ (str.to_re "E") (re.++ (str.to_re "N") (str.to_re "D")))))))))))))))))))))))))))))))))))))))))))))
; sanitize danger characters:  < > ' " &
(assert (not (str.in_re X (re.++ re.all (re.union (str.to_re "\u{3c}") (str.to_re "\u{3e}") (str.to_re "\u{27}") (str.to_re "\u{22}") (str.to_re "\u{26}")) re.all))))
(assert (< 20 (str.len X)))
(check-sat)
(exit)
